
  32    4
  10   10   10   10

   0   0   0   0   0   3 2 3 31 
   5   0   1   1   1   2 30 4 
   9   0   2   8   7   3 30 12 5 
   2   1   0   5   6   2 12 5 
   9   5   3   0   5   1 6 
   3   5   5   0   2   3 29 28 7 
   5   4   6   0   7   1 8 
   7   0   7   3   3   2 27 9 
   3   6   0   6   5   2 26 10 
   4   7   0   3   8   2 25 11 
   1   5   4   0   1   1 13 
   9   0   2   4   5   3 24 16 15 
   4   2   3   4   0   2 24 14 
   4   3   4   0   4   1 15 
   3   2   7   0   5   3 23 19 17 
   8   0   4   4   3   3 23 19 17 
   9   0   3   2   3   3 22 20 18 
   1   5   6   2   0   1 21 
   2   1   4   0   4   1 20 
   4   0   5   6   2   1 32
   3   0   6   5   5   1 32
   8   5   0   2   2   1 32
   3   2   4   4   0   1 32
   1   5   7   2   0   1 32
   4   6   2   0   4   1 32
   5   4   6   0   3   1 32
   2   0   2   4   5   1 32
   7   2   0   8   1   1 32
   1   0   3   4   3   1 32
   4   3   1   3   0   1 32
   6   7   3   0   6   1 32
   0   0   0   0   0   0 
